;; ===================== PROJECTED CANON (QE) =====================
;; Each clause below is entailed by Proj = ∃W.F over the canonical vocabulary.
;; Units appear first for clarity; OR-clauses (SAT-filtered) follow.
;; ==================================================================

;; Unit Bool constraints (entailed)
(assert (not patient_has_undergone_radiotherapy_to_thorax_inthehistory))
(assert (not patient_is_pregnant_now))
(assert (not patient_is_breastfeeding_now))
(assert (not patients_breastfeeding_is_positive_now))
(assert (not patient_has_finding_of_infectious_disease_of_lung_inthepast1months))
(assert (not patient_has_finding_of_cerebrovascular_accident_inthehistory))
